CMD:
./solvers/bin/cadical --plain --no-reduce -t 1600 ./data/cnfs//oski15a14b32s/oski15a14b32s.86.cnf

c --- [ banner ] -------------------------------------------------------------
c 
c CaDiCaL SAT Solver
c Copyright (c) 2016-2024
c A. Biere, M. Fleury, N. Froleyks, K. Fazekas, F. Pollitt, T. Faller
c JKU Linz, University of Freiburg, TU Wien
c 
c Version 2.1.3 5296d3d2a9bf48c154ab2acb5e44625776d821bf
c g++ (Gentoo 12.3.1_p20230526 p2) 12.3.1 20230526 -Wall -Wextra -O3 -DNDEBUG
c Sat Aug 9 07:26:21 PDT 2025 Linux cedar2.int.cedar.computecanada.ca 5.14.0-362.24.2.el9_3.x86_64 x86_64
c 
c --- [ limit ] --------------------------------------------------------------
c 
c setting time limit to 1600 seconds real time (due to '-t 1600')
c 
c --- [ parsing input ] ------------------------------------------------------
c 
c reading DIMACS file from './data/cnfs//oski15a14b32s/oski15a14b32s.86.cnf'
c opening file to read './data/cnfs//oski15a14b32s/oski15a14b32s.86.cnf'
c found 'p cnf 3832436 11210598' header
c parsed 11210598 clauses in 1.79 seconds process time
c 
c --- [ options ] ------------------------------------------------------------
c 
c   --compact=false                (different from default 'true')
c   --decompose=false              (different from default 'true')
c   --deduplicate=false            (different from default 'true')
c   --elim=false                   (different from default 'true')
c   --probe=false                  (different from default 'true')
c   --reduce=false                 (different from default 'true')
c   --subsume=false                (different from default 'true')
c   --ternary=false                (different from default 'true')
c   --transred=false               (different from default 'true')
c   --vivify=false                 (different from default 'true')
c 
c --- [ solving ] ------------------------------------------------------------
c 
c time measured in process time since initialization
c 
c  seconds    reductions  redundant   irredundant
c          MB     restarts       trail          variables
c            level   conflicts       glue             remaining
c 
c *  1.79 1694  0 0   0    0    0  0% 0 10787001 3442491 90%
c {  2.71 1724  0 0   0    0    0  0% 0 10787001 3442491 90%
c i  2.73 1724 1439 0   0    1    0 16% 0 10787001 3442490 90%
c i  3.35 1724 2368 0   8  298  291 18% 3 10787001 3442468 90%
c i  3.38 1724 1953 0  23  426  373 16% 4 10787001 3442466 90%
c i  3.38 1724 1899 0  26  437  383 16% 4 10787001 3442298 90%
c i  3.38 1724 1894 0  26  438  383 16% 4 10787001 3442297 90%
c i  3.38 1724 1890 0  26  439  383 16% 4 10787001 3442295 90%
c i  3.39 1724 1885 0  26  440  383 16% 4 10787001 3442294 90%
c i  3.39 1724 1880 0  26  441  383 16% 4 10787001 3442293 90%
c i  3.39 1724 1871 0  26  443  384 16% 4 10787001 3442292 90%
c i  3.39 1724 1866 0  26  444  384 16% 4 10787001 3442291 90%
c i  3.39 1724 1852 0  26  447  386 16% 4 10787001 3442290 90%
c i  3.39 1724 1848 0  26  448  386 16% 4 10787001 3442289 90%
c i  3.39 1724 1838 0  26  450  387 16% 4 10787001 3442288 90%
c i  3.39 1724 1834 0  26  451  387 16% 4 10787001 3442287 90%
c i  3.39 1724 1825 0  26  453  388 16% 4 10787001 3442286 90%
c i  3.39 1724 1816 0  26  455  389 16% 4 10787001 3442285 90%
c i  3.39 1724 1799 0  26  461  392 16% 4 10787001 3442284 90%
c i  3.39 1724 1790 0  26  463  393 16% 4 10787001 3442283 90%
c 
c  seconds      reductions  redundant   irredundant
c          MB       restarts       trail          variables
c             level    conflicts       glue             remaining
c 
c i  3.39 1724 1782 0  26  465  393 16% 4 10787001 3442282 90%
c i  3.39 1724 1765 0  26  469  394 16% 4 10787001 3442279 90%
c i  3.39 1724 1761 0  26  470  394 16% 4 10787001 3442278 90%
c i  3.39 1724 1753 0  26  472  395 16% 4 10787001 3442277 90%
c i  3.39 1724 1748 0  26  473  395 16% 4 10787001 3442276 90%
c i  3.39 1724 1744 0  26  474  395 16% 4 10787001 3442275 90%
c i  3.39 1724 1659 0  26  497  414 16% 4 10787001 3442116 90%
c i  3.39 1724 1562 0  26  530  438 15% 4 10787001 3441097 90%
c }  3.39 1724 1544 0  26  537  443 15% 4 10787001 3439981 90%
c 0  3.39 1724 1544 0  26  537  443 15% 4 10787001 3439981 90%
c 
c --- [ result ] -------------------------------------------------------------
c 
s UNSATISFIABLE
c 
c --- [ run-time profiling ] -------------------------------------------------
c 
c process time taken by individual solving procedures
c (percentage relative to process time for solving)
c 
c         1.79  112.18% parse
c         1.60   99.99% search
c         0.92   57.63% lucky
c         0.68   42.36% unstable
c         0.00    0.00% simplify
c   =================================
c         1.60   47.12% solve
c 
c last line shows process time for solving
c (percentage relative to total process time)
c 
c --- [ statistics ] ---------------------------------------------------------
c 
c chronological:               306        56.98 %  of conflicts
c conflicts:                   537       336.42    per second
c decisions:                  9670      6058.02    per second
c fixed:                    392455        10.24 %  of all variables
c learned:                     483        89.94 %  per conflict
c learned_lits:               3886       100.00 %  learned literals
c minimized:                     0         0.00 %  learned literals
c shrunken:                    875        22.52 %  learned literals
c minishrunken:                 73         1.88 %  learned literals
c otfs:                          3         0.56 %  of conflict
c propagations:            1724356         1.08 M  per second
c restarts:                     26        20.65    interval
c subsumed:                     11         0.00 %  of all clauses
c strengthened:                  3         0.00 %  of all clauses
c 
c seconds are measured in process time for solving
c 
c --- [ resources ] ----------------------------------------------------------
c 
c total process time since initialization:         3.39    seconds
c total real time since initialization:            3.41    seconds
c maximum resident set size of process:         1722.84    MB
c 
c --- [ shutting down ] ------------------------------------------------------
c 
c exit 20
